HUN,8,6,256
3,81,2,44,1,24,4,37,5,19,0,43
2,97,3,88,5,41,4,65,0,66,1,95
0,82,2,61,1,55,5,28,3,38,4,43
5,76,2,65,1,20,3,72,0,11,4,5
3,3,1,7,0,91,4,26,2,2,5,10
5,57,2,67,1,91,3,51,0,10,4,59
0,87,4,18,2,7,3,81,1,41,5,40
2,69,5,11,0,9,1,21,3,78,4,27
